\ This file was automatically generated by Zimpl
\ set L  := {"A", "B", "C"};
\ set T := {"a", "b", "c"};
\ set Z := L cross T;
\ var x[Z] binary ;
\ minimize cost: sum <i, j> in Z : 1 * x[i, j];
\ subto b: forall <i,j> in Z: sum <i, j> in Z : x[i, j] == 1;
\ do print Z;
\ do print x;
\Problem name: .\assignmentModel.zpl
Minimize
 cost:  + x$A$a + x$A$b + x$A$c + x$B$a + x$B$b + x$B$c
  + x$C$a + x$C$b + x$C$c
Subject to
 b_1:
  + x$A$a = 1
 b_2:
  + x$A$b = 1
 b_3:
  + x$A$c = 1
 b_4:
  + x$B$a = 1
 b_5:
  + x$B$b = 1
 b_6:
  + x$B$c = 1
 b_7:
  + x$C$a = 1
 b_8:
  + x$C$b = 1
 b_9:
  + x$C$c = 1
Bounds
 0 <= x$A$a <= 1
 0 <= x$A$b <= 1
 0 <= x$A$c <= 1
 0 <= x$B$a <= 1
 0 <= x$B$b <= 1
 0 <= x$B$c <= 1
 0 <= x$C$a <= 1
 0 <= x$C$b <= 1
 0 <= x$C$c <= 1
General
 x$A$a
 x$A$b
 x$A$c
 x$B$a
 x$B$b
 x$B$c
 x$C$a
 x$C$b
 x$C$c
End
